N = 13;
H = 5;
T = 2;

avail = array3d(1..N, 1..H, 1..T, [5, 3, 6, 6, 3, 7, 10, 5, 8, 0, 2, 9, 9, 1, 2, 2, 9, 4, 6, 2, 0, 1, 5, 2, 0, 2, 5, 7, 0, 5, 2, 9, 5, 6, 8, 9, 7, 6, 4, 7, 7, 7, 5, 7, 4, 8, 1, 5, 1, 7, 7, 4, 1, 8, 3, 1, 1, 3, 4, 6, 6, 6, 4, 1, 1, 5, 0, 0, 7, 7, 6, 9, 9, 5, 0, 6, 3, 3, 1, 2, 6, 7, 8, 6, 0, 7, 1, 5, 0, 1, 6, 1, 1, 4, 10, 3, 1, 8, 10, 9, 6, 10, 7, 1, 0, 3, 0, 4, 8, 1, 8, 9, 9, 5, 6, 7, 0, 3, 0, 4, 5, 9, 5, 6, 4, 8, 4, 3, 1, 9]);

r = array2d(1..H, 1..T, [4, 1, 3, 2, 3, 0, 6, 5, 3, 4]);
